100 8
225 270
354 81
743 728
476 166
637 281
485 460
748 542
778 773
736 578
533 629
190 185
539 873
942 773
618 522
675 792
451 624
831 772
445 134
656 785
472 29
625 22
473 617
219 232
833 762
789 471
328 48
833 917
557 85
518 413
894 758
804 801
137 419
769 741
558 740
649 840
622 515
830 923
730 178
533 557
594 56
543 437
410 566
220 576
535 630
774 790
792 677
457 53
705 574
434 21
496 59
231 201
701 829
755 829
590 702
475 629
347 590
75 721
266 395
308 255
828 855
207 352
197 328
488 409
272 470
523 485
641 714
625 365
421 394
217 719
142 494
697 631
526 264
559 427
497 697
455 564
526 767
454 131
678 357
414 464
629 486
390 726
555 23
534 848
461 620
280 417
785 665
727 874
861 766
788 802
242 641
751 550
358 654
443 634
213 323
682 568
390 615
650 153
647 731
459 673
638 619
